# Objective value = 28
WA1n 0
WA1p 0
WA2n 0
WA2p 1
WB1n 0
WB1p 0
WB2n 0
WB2p 1
WC1n 1
WC1p 0
WD1n 1
WD1p 0
WE1n 1
WE1p 0
WF1n 0
WF1p 1
WG1n 0
WG1p 1
WH1n 0
WH1p 5
WH2n 0
WH2p 1
WI1n 6
WI1p 0
WI2n 1
WI2p 0
WT1n 0
WT1p 2
WT2n 0
WT2p 1
5 7
a 0
b 1
c 0
d 1
e 0
f 0
g 0
h 1
i 1
j 1
k 1
l 0
m 0
n 1
o 1
